p cnf 15 28
-4 0
-3 0
-2 0
1 0
-6 12 -8 0
-10 15 -5 0
-11 -9 0
-13 -9 8 0
10 -7 0
-6 -8 12 0
-9 5 -10 0
-5 9 0
-5 -12 0
14 11 0
13 -9 -5 0
-9 14 5 0
-14 -13 -5 0
5 -11 9 0
14 -7 13 0
14 -15 -12 0
-13 8 -12 0
-9 -15 -14 0
-6 12 -5 0
-13 6 -7 0
11 6 -12 0
12 -10 14 0
-6 0
-7 -8 0
